 vasp.5.3.5 31Mar14 (build Jun 21 2016 10:20:01) complex

 executed on             LinuxIFC date 2018.11.01  15:39:54

 INCAR:
 POTCAR:    PAW_PBE Si 05Jan2001
 POTCAR:    PAW_PBE Si 05Jan2001
   VRHFIN =Si: s2p2

   TITEL  = PAW_PBE Si 05Jan2001
   POMASS =   28.085; ZVAL   =    4.000    mass and valenz
   ENMAX  =  245.345; ENMIN  =  184.009 eV

 Optimization of the real space projectors (new method)

 maximal supplied QI-value         = 19.84
 optimisation between [QCUT,QGAM] = [ 11.51, 23.22] = [ 37.09,150.92] Ry
 Optimized for a Real-space Cutoff    1.21 Angstroem

   l    n(q)    QCUT    max X(q) W(low)/X(q) W(high)/X(q)  e(spline)
   0      8    11.508   159.560    0.71E-04    0.15E-03    0.51E-07
   0      8    11.508   115.863    0.70E-04    0.15E-03    0.51E-07
   1      8    11.508    88.339    0.16E-03    0.38E-04    0.82E-07
   1      8    11.508    48.592    0.15E-03    0.36E-04    0.79E-07
  PAW_PBE Si 05Jan2001                  :

 POSCAR: Si2
  positions in direct lattice
 exchange correlation table for  LEXCH =        8
   RHO(1)=    0.500       N(1)  =     2000
   RHO(2)=  100.500       N(2)  =     4000

 VTST: version 3.1, (03/28/14)

 CHAIN: initializing optimizer

 OPT: Using VASP Conjugate-Gradient optimizer
 CHAIN: Read ICHAIN            0

 POSCAR: Si2
  positions in direct lattice

 ion  position               nearest neighbor table
   1  0.000  0.000  0.000-   2 2.33   2 2.33   2 2.33   2 2.33
   2  0.750  0.750  0.750-   1 2.33   1 2.33   1 2.33   1 2.33

  LATTYP: Found a face centered cubic cell.
 ALAT       =     5.3810000000

  Lattice vectors:

 A1 = (  -2.6905000000,  -2.6905000000,   0.0000000000)
 A2 = (  -2.6905000000,   0.0000000000,  -2.6905000000)
 A3 = (   0.0000000000,  -2.6905000000,  -2.6905000000)

Analysis of symmetry for initial positions (statically):
 Subroutine PRICEL returns:
 Original cell was already a primitive cell.

 Routine SETGRP: Setting up the symmetry group for a
 face centered cubic supercell.

 Subroutine GETGRP returns: Found 48 space group operations
 (whereof 24 operations were pure point group operations)
 out of a pool of 48 trial point group operations.

The static configuration has the point symmetry T_d .
 The point group associated with its full space group is O_h .

Analysis of symmetry for dynamics (positions and initial velocities):
 Subroutine PRICEL returns:
 Original cell was already a primitive cell.

 Routine SETGRP: Setting up the symmetry group for a
 face centered cubic supercell.

 Subroutine GETGRP returns: Found 48 space group operations
 (whereof 24 operations were pure point group operations)
 out of a pool of 48 trial point group operations.

The dynamic configuration has the point symmetry T_d .
 The point group associated with its full space group is O_h .

Analysis of magnetic symmetry:
 Subroutine PRICEL returns:
 Original cell was already a primitive cell.

 Subroutine MAGSYM returns: Found 48 space group operations
 (whereof 24 operations were pure point group operations)
 out of a pool of 48 trial space group operations
 (whereof 24 operations were pure point group operations)
 and found also     1 'primitive' translations

The magnetic configuration has the point symmetry T_d .
 The point group associated with its full space group is O_h .

 KPOINTS: pymatgen 4.7.6+ generated KPOINTS with g

Automatic generation of k-mesh.
Space group operators:
 irot       det(A)        alpha          n_x          n_y          n_z        tau_x        tau_y        tau_z
    1     1.000000     0.000001     1.000000     0.000000     0.000000     0.000000     0.000000     0.000000
    2     1.000000   120.000000     0.577350     0.577350     0.577350     0.000000     0.000000     0.000000
    3     1.000000   120.000000    -0.577350    -0.577350    -0.577350     0.000000     0.000000     0.000000
    4    -1.000000    90.000000     1.000000     0.000000     0.000000     0.000000     0.000000     0.000000
    5    -1.000000   180.000000     0.707107     0.707107     0.000000     0.000000     0.000000     0.000000
    6    -1.000000    90.000000     0.000000    -1.000000     0.000000     0.000000     0.000000     0.000000
    7     1.000000   180.000000     1.000000     0.000000     0.000000     0.000000     0.000000     0.000000
    8     1.000000   120.000000    -0.577350    -0.577350     0.577350     0.000000     0.000000     0.000000
    9     1.000000   120.000000     0.577350    -0.577350     0.577350     0.000000     0.000000     0.000000
   10    -1.000000    90.000000    -1.000000     0.000000     0.000000     0.000000     0.000000     0.000000
   11    -1.000000    90.000000     0.000000     0.000000     1.000000     0.000000     0.000000     0.000000
   12    -1.000000   180.000000     0.707107     0.000000     0.707107     0.000000     0.000000     0.000000
   13     1.000000   120.000000    -0.577350     0.577350    -0.577350     0.000000     0.000000     0.000000
   14     1.000000   120.000000    -0.577350     0.577350     0.577350     0.000000     0.000000     0.000000
   15     1.000000   180.000000     0.000000     0.000000     1.000000     0.000000     0.000000     0.000000
   16    -1.000000    90.000000     0.000000     1.000000     0.000000     0.000000     0.000000     0.000000
   17    -1.000000   180.000000     0.000000     0.707107     0.707107     0.000000     0.000000     0.000000
   18    -1.000000    90.000000     0.000000     0.000000    -1.000000     0.000000     0.000000     0.000000
   19     1.000000   120.000000     0.577350     0.577350    -0.577350     0.000000     0.000000     0.000000
   20     1.000000   180.000000     0.000000     1.000000     0.000000     0.000000     0.000000     0.000000
   21     1.000000   120.000000     0.577350    -0.577350    -0.577350     0.000000     0.000000     0.000000
   22    -1.000000   180.000000     0.707107    -0.707107     0.000000     0.000000     0.000000     0.000000
   23    -1.000000   180.000000     0.000000    -0.707107     0.707107     0.000000     0.000000     0.000000
   24    -1.000000   180.000000     0.707107     0.000000    -0.707107     0.000000     0.000000     0.000000
   25    -1.000000     0.000001     1.000000     0.000000     0.000000     0.750000     0.750000     0.750000
   26    -1.000000   120.000000     0.577350     0.577350     0.577350     0.750000     0.750000     0.750000
   27    -1.000000   120.000000    -0.577350    -0.577350    -0.577350     0.750000     0.750000     0.750000
   28     1.000000    90.000000     1.000000     0.000000     0.000000     0.750000     0.750000     0.750000
   29     1.000000   180.000000     0.707107     0.707107     0.000000     0.750000     0.750000     0.750000
   30     1.000000    90.000000     0.000000    -1.000000     0.000000     0.750000     0.750000     0.750000
   31    -1.000000   180.000000     1.000000     0.000000     0.000000     0.750000     0.750000     0.750000
   32    -1.000000   120.000000    -0.577350    -0.577350     0.577350     0.750000     0.750000     0.750000
   33    -1.000000   120.000000     0.577350    -0.577350     0.577350     0.750000     0.750000     0.750000
   34     1.000000    90.000000    -1.000000     0.000000     0.000000     0.750000     0.750000     0.750000
   35     1.000000    90.000000     0.000000     0.000000     1.000000     0.750000     0.750000     0.750000
   36     1.000000   180.000000     0.707107     0.000000     0.707107     0.750000     0.750000     0.750000
   37    -1.000000   120.000000    -0.577350     0.577350    -0.577350     0.750000     0.750000     0.750000
   38    -1.000000   120.000000    -0.577350     0.577350     0.577350     0.750000     0.750000     0.750000
   39    -1.000000   180.000000     0.000000     0.000000     1.000000     0.750000     0.750000     0.750000
   40     1.000000    90.000000     0.000000     1.000000     0.000000     0.750000     0.750000     0.750000
   41     1.000000   180.000000     0.000000     0.707107     0.707107     0.750000     0.750000     0.750000
   42     1.000000    90.000000     0.000000     0.000000    -1.000000     0.750000     0.750000     0.750000
   43    -1.000000   120.000000     0.577350     0.577350    -0.577350     0.750000     0.750000     0.750000
   44    -1.000000   180.000000     0.000000     1.000000     0.000000     0.750000     0.750000     0.750000
   45    -1.000000   120.000000     0.577350    -0.577350    -0.577350     0.750000     0.750000     0.750000
   46     1.000000   180.000000     0.707107    -0.707107     0.000000     0.750000     0.750000     0.750000
   47     1.000000   180.000000     0.000000    -0.707107     0.707107     0.750000     0.750000     0.750000
   48     1.000000   180.000000     0.707107     0.000000    -0.707107     0.750000     0.750000     0.750000

 Subroutine IBZKPT returns following result:

 Found     20 irreducible k-points:

 Following reciprocal coordinates:
            Coordinates               Weight
  0.000000  0.000000  0.000000      1.000000
  0.142857  0.000000  0.000000      8.000000
  0.285714  0.000000  0.000000      8.000000
  0.428571  0.000000  0.000000      8.000000
  0.142857  0.142857  0.000000      6.000000
  0.285714  0.142857  0.000000     24.000000
  0.428571  0.142857  0.000000     24.000000
 -0.428571  0.142857  0.000000     24.000000
 -0.285714  0.142857  0.000000     24.000000
 -0.142857  0.142857  0.000000     12.000000
  0.285714  0.285714  0.000000      6.000000
  0.428571  0.285714  0.000000     24.000000
 -0.428571  0.285714  0.000000     24.000000
 -0.285714  0.285714  0.000000     12.000000
  0.428571  0.428571  0.000000      6.000000
 -0.428571  0.428571  0.000000     12.000000
  0.428571  0.285714  0.142857     24.000000
 -0.428571  0.285714  0.142857     48.000000
 -0.428571  0.428571  0.142857     24.000000
 -0.285714  0.428571  0.142857     24.000000

 Following cartesian coordinates:
            Coordinates               Weight
  0.000000  0.000000  0.000000      1.000000
 -0.026548 -0.026548  0.026548      8.000000
 -0.053097 -0.053097  0.053097      8.000000
 -0.079645 -0.079645  0.079645      8.000000
 -0.053097  0.000000  0.000000      6.000000
 -0.079645 -0.026548  0.026548     24.000000
 -0.106194 -0.053097  0.053097     24.000000
  0.053097  0.106194 -0.106194     24.000000
  0.026548  0.079645 -0.079645     24.000000
  0.000000  0.053097 -0.053097     12.000000
 -0.106194  0.000000  0.000000      6.000000
 -0.132742 -0.026548  0.026548     24.000000
  0.026548  0.132742 -0.132742     24.000000
  0.000000  0.106194 -0.106194     12.000000
 -0.159291  0.000000  0.000000      6.000000
  0.000000  0.159291 -0.159291     12.000000
 -0.106194 -0.053097  0.000000     24.000000
  0.053097  0.106194 -0.159291     48.000000
  0.026548  0.132742 -0.185839     24.000000
 -0.000000  0.106194 -0.159291     24.000000

 TETIRR: Found     58 inequivalent tetrahedra from     2058

 I would recommend the setting:
   dimension x,y,z NGX =    28 NGY =   28 NGZ =   28
 SYSTEM =  unknown system
 POSCAR =  Si2

 Startparameter for this run:
   NWRITE =      2    write-flag & timer
   PREC   = accura    normal or accurate (medium, high low for compatibility)
[...]
  -0.15929063  0.00000000  0.00000000       0.017
   0.00000000  0.15929063 -0.15929063       0.035
  -0.10619375 -0.05309688  0.00000000       0.070
   0.05309688  0.10619375 -0.15929063       0.140
   0.02654844  0.13274219 -0.18583906       0.070
  -0.00000000  0.10619375 -0.15929063       0.070

 k-points in reciprocal lattice and weights: pymatgen 4.7.6+ generated KPOINTS with g
   0.00000000  0.00000000  0.00000000       0.003
   0.14285714  0.00000000  0.00000000       0.023
   0.28571429  0.00000000  0.00000000       0.023
   0.42857143  0.00000000  0.00000000       0.023
   0.14285714  0.14285714  0.00000000       0.017
   0.28571429  0.14285714  0.00000000       0.070
   0.42857143  0.14285714  0.00000000       0.070
  -0.42857143  0.14285714  0.00000000       0.070
  -0.28571429  0.14285714  0.00000000       0.070
  -0.14285714  0.14285714  0.00000000       0.035
   0.28571429  0.28571429  0.00000000       0.017
   0.42857143  0.28571429  0.00000000       0.070
  -0.42857143  0.28571429  0.00000000       0.070
  -0.28571429  0.28571429  0.00000000       0.035
   0.42857143  0.42857143  0.00000000       0.017
  -0.42857143  0.42857143  0.00000000       0.035
   0.42857143  0.28571429  0.14285714       0.070
  -0.42857143  0.28571429  0.14285714       0.140
  -0.42857143  0.42857143  0.14285714       0.070
  -0.28571429  0.42857143  0.14285714       0.070

 position of ions in fractional coordinates (direct lattice)
   0.00000000  0.00000000  0.00000000
   0.75000000  0.75000000  0.75000000

 position of ions in cartesian coordinates  (Angst):
   0.00000000  0.00000000  0.00000000
  -4.03575000 -4.03575000 -4.03575000

 k-point  1 :   0.0000 0.0000 0.0000  plane waves:    1067
 k-point  2 :   0.1429 0.0000 0.0000  plane waves:    1031
 k-point  3 :   0.2857 0.0000 0.0000  plane waves:    1053
 k-point  4 :   0.4286 0.0000 0.0000  plane waves:    1044
 k-point  5 :   0.1429 0.1429 0.0000  plane waves:    1034
 k-point  6 :   0.2857 0.1429 0.0000  plane waves:    1050
 k-point  7 :   0.4286 0.1429 0.0000  plane waves:    1050
 k-point  8 :  -0.4286 0.1429 0.0000  plane waves:    1051
 k-point  9 :  -0.2857 0.1429 0.0000  plane waves:    1052
 k-point 10 :  -0.1429 0.1429 0.0000  plane waves:    1041
 k-point 11 :   0.2857 0.2857 0.0000  plane waves:    1030
 k-point 12 :   0.4286 0.2857 0.0000  plane waves:    1048
 k-point 13 :  -0.4286 0.2857 0.0000  plane waves:    1046
 k-point 14 :  -0.2857 0.2857 0.0000  plane waves:    1057
 k-point 15 :   0.4286 0.4286 0.0000  plane waves:    1046
 k-point 16 :  -0.4286 0.4286 0.0000  plane waves:    1037
 k-point 17 :   0.4286 0.2857 0.1429  plane waves:    1048
 k-point 18 :  -0.4286 0.2857 0.1429  plane waves:    1056
 k-point 19 :  -0.4286 0.4286 0.1429  plane waves:    1059
 k-point 20 :  -0.2857 0.4286 0.1429  plane waves:    1053

 maximum and minimum number of plane-waves per node :      1067     1030

 maximum number of plane-waves:      1067
 maximum index in each direction:
   IXMAX=    7   IYMAX=    7   IZMAX=    7
   IXMIN=   -7   IYMIN=   -7   IZMIN=   -7

 WARNING: aliasing errors must be expected set NGX to  30 to avoid them
 WARNING: aliasing errors must be expected set NGY to  30 to avoid them
 WARNING: aliasing errors must be expected set NGZ to  30 to avoid them
 aliasing errors are usually negligible using standard VASP settings
 and one can safely disregard these warnings

 serial   3D FFT for wavefunctions
 parallel 3D FFT for charge:
    minimum data exchange during FFTs selected (reduces bandwidth)

 Broyden mixing: mesh for mixing (old mesh)
   NGX = 15   NGY = 15   NGZ = 15
  (NGX  = 56   NGY  = 56   NGZ  = 56)
  gives a total of   3375 points

 initial charge density was supplied:
 charge density of overlapping atoms calculated
 number of electron       8.0000000 magnetization       1.2000000
 keeping initial charge density in first step

 Maximum index for non-local projection operator         4093
 Maximum index for augmentation-charges         4569 (set IRDMAX)

 First call to EWALD:  gamma=   0.523
 Maximum number of real-space cells 3x 3x 3
 Maximum number of reciprocal cells 3x 3x 3

 FEWALD executed in parallel

----------------------------------------- Iteration    1(   1)  ---------------------------------------

 BZINTS: Fermi energy:  9.766281;  8.000000 electrons
         Band energy:  21.005975;  BLOECHL correction: -0.121112

 eigenvalue-minimisations  :   960
 total energy-change (2. order) : 0.6131193E+01  (-0.2895703E+03)
 number of electron       8.0000000 magnetization       1.2000000
 augmentation part        8.0000000 magnetization       1.2000000

 Free energy of the ion-electron system (eV)
  alpha Z        PSCENC =         3.45688961
  Ewald energy   TEWEN  =      -230.64485047
  -Hartree energ DENC   =       -10.59677716
  -exchange      EXHF   =         0.00000000
  -V(xc)+E(xc)   XCENC  =       -18.41385785
  PAW double counting   =       176.18363791     -140.99252705
  entropy T*S    EENTRO =         0.00000000
  eigenvalues    EBANDS =        21.00597514
  atomic energy  EATOM  =       206.13270273
  free energy    TOTEN  =         6.13119286 eV

  energy without entropy =        6.13119286  energy(sigma->0) =        6.13119286

[...]

 eigenvalue-minimisations  :  1204
 total energy-change (2. order) :-0.1638775E+02  (-0.1573626E+02)
 number of electron       8.0000000 magnetization       1.2000000
 augmentation part        8.0000000 magnetization       1.2000000

[...]

 Broyden mixing:
  rms(total) = 0.55287E+00    rms(broyden)= 0.55287E+00
  rms(prec ) = 0.10134E+01
  weight for this iteration     100.00

[...]

 eigenvalues of (default mixing * dielectric matrix)
  average eigenvalue GAMMA=   0.9035
  0.9035

[...]

 average (electrostatic) potential at core
  the test charge radii are     0.9892
  (the norm of the test charge is              1.0000)
       1 -82.9324       2 -82.9324

 E-fermi :   6.1322     XC(G=0):  -9.5180     alpha+bet :-12.3149

 spin component 1

 k-point     1 :       0.0000    0.0000    0.0000
  band No.  band energies     occupation
      1      -6.0400      1.00000
      2       6.1109      1.00000
      3       6.1109      1.00000
      4       6.1109      1.00000
      5       8.6859      0.00000
      6       8.6859      0.00000
      7       8.6859      0.00000
      8       9.8054      0.00000
      9      13.8429      0.00000
     10      13.8429      0.00000
     11      14.1758      0.00000
     12      17.4543      0.00000

[...]

 soft charge-density along one line, spin component           1
         0         1         2         3         4         5         6         7         8         9
 total charge-density along one line

[...]

------------------------ aborting loop because EDIFF is reached ----------------------------------------

 total charge

# of ion     s       p       d       tot
  1        0.750   0.963   0.000   1.714
  2        0.750   0.963   0.000   1.714
tot        1.501   1.927   0.000   3.427

 magnetization (x)

[...]

  FORCE on cell =-STRESS in cart. coord.  units (eV):
  Direction    XX          YY          ZZ          XY          YZ          ZX
  Alpha Z     3.45689     3.45689     3.45689
  Ewald     -76.88165   -76.88165   -76.88165    -0.00000    -0.00000    -0.00000
  Hartree     4.87493     4.87493     4.87493     0.00000     0.00000     0.00000
  E(xc)     -25.53342   -25.53342   -25.53342     0.00000     0.00000     0.00000
  Local     -28.86036   -28.86036   -28.86036     0.00001     0.00001     0.00001
  n-local    74.84384    80.60983    79.60682    -1.21715     2.36208     0.67726
  augment   -11.65334   -11.65334   -11.65334    -0.00001    -0.00001    -0.00001
  Kinetic    55.96088    56.91896    59.36033    -0.76981     3.53370     0.96464
  Fock        0.00000     0.00000     0.00000     0.00000     0.00000     0.00000
  Total       1.16994     1.16994     1.16994    -0.00000     0.00000     0.00000
  in kB      48.12200    48.12200    48.12200    -0.00000     0.00000     0.00000

 VOLUME and BASIS-vectors are now :
  energy-cutoff  :      520.00
  volume of cell :       38.95
      direct lattice vectors                 reciprocal lattice vectors
    -2.690500000 -2.690500000  0.000000000    -0.185839063 -0.185839063  0.185839063
    -2.690500000  0.000000000 -2.690500000    -0.185839063  0.185839063 -0.185839063
     0.000000000 -2.690500000 -2.690500000     0.185839063 -0.185839063 -0.185839063

[...]

 FORCES acting on ions
    electron-ion (+dipol)            ewald-force                    non-local-force                 convergence-correction
   -.340E-08 -.779E-08 -.779E-08   0.246E-14 -.112E-14 0.639E-15   -.694E-17 -.208E-16 -.694E-16   0.223E-09 0.223E-09 0.223E-09
   0.340E-08 0.779E-08 0.779E-08   -.254E-14 0.122E-14 -.573E-15   0.208E-16 0.416E-16 0.278E-16   -.223E-09 -.223E-09 -.223E-09
   0.121E-12 -.215E-13 0.166E-12   -.767E-16 0.104E-15 0.659E-16   0.139E-16 0.208E-16 -.416E-16   0.106E-14 0.298E-16 0.335E-14

 POSITION                                       TOTAL-FORCE (eV/Angst)
      0.00000      0.00000      0.00000         0.000000      0.000000      0.000000
     -4.03575     -4.03575     -4.03575        -0.000000     -0.000000     -0.000000
    total drift:                                0.000000     -0.000000      0.000000

  FREE ENERGIE OF THE ION-ELECTRON SYSTEM (eV)
  free  energy   TOTEN  =       -10.81363721 eV

  energy  without entropy=      -10.81363721  energy(sigma->0) =      -10.81363721

 stress matrix after NEB project (eV)
      1.16994      0.00000      0.00000
     -0.00000      1.16994      0.00000
     -0.00000      0.00000      1.16994
  FORCES: max atom, RMS     0.000000    0.000000
  FORCE total and by dimension    0.000000    0.000000
  Stress total and by dimension    2.026388    1.169936

[...]

 d Force = 0.0000000E+00[ 0.000E+00, 0.000E+00]  d Energy = 0.1400496E-01-0.140E-01
 d Force = 0.0000000E+00[ 0.000E+00, 0.000E+00]  d Ewald  =-0.6330249E+01 0.633E+01

 stress matrix after NEB project (eV)
     -0.76144      0.00000      0.00000
      0.00000     -0.76144      0.00000
     -0.00000     -0.00000     -0.76144
  FORCES: max atom, RMS     0.000000    0.000000
  FORCE total and by dimension    0.000000    0.000000
  Stress total and by dimension    1.318853    0.761440
 Steepest descent step on ions:
 trial-energy change:   -0.014005  1 .order   -0.017292   -0.099048    0.064464
  (g-gl).g = 0.990E-01      g.g   = 0.990E-01  gl.gl    = 0.000E+00
 g(Force)  = 0.739E-50   g(Stress)= 0.990E-01 ortho     = 0.000E+00
 gamma     =   0.00000
 trial     =   1.00000
 opt step  =   0.57630  (harmonic =   0.60575) maximal distance =0.00000000
 next E    =   -10.841549   (d E  =  -0.02791)

 FEWALD executed in parallel

[...]

 eigenvalue-minimisations  :   960
 total energy-change (2. order) : 0.2329585E-02  (-0.2806411E-03)
 number of electron       8.0000000 magnetization       0.0000021
 augmentation part       -0.4577211 magnetization       0.0000024

[...]

 Broyden mixing:
  rms(total) = 0.69367E-02    rms(broyden)= 0.69367E-02
  rms(prec ) = 0.77349E-02
  weight for this iteration     100.00

 eigenvalues of (default mixing * dielectric matrix)
  average eigenvalue GAMMA=   1.7368
  2.1451  1.4572  1.6080

[...]

----------------------------------------- Iteration    3(   5)  ---------------------------------------

[...]

 eigenvalue-minimisations  :   509
 total energy-change (2. order) :-0.4566631E-05  (-0.1253910E-05)
 number of electron       8.0000000 magnetization       0.0000294
 augmentation part       -0.4577822 magnetization       0.0000293

 Free energy of the ion-electron system (eV)
  alpha Z        PSCENC =         3.29356746
  Ewald energy   TEWEN  =      -226.95379381
  -Hartree energ DENC   =       -15.20514080
  -exchange      EXHF   =         0.00000000
  -V(xc)+E(xc)   XCENC  =       -18.05597976
  PAW double counting   =       830.35417617     -795.37421631
  entropy T*S    EENTRO =         0.00000000
  eigenvalues    EBANDS =         4.96747514
  atomic energy  EATOM  =       206.13270273
  free energy    TOTEN  =       -10.84120917 eV

  energy without entropy =      -10.84120917  energy(sigma->0) =      -10.84120917

 average (electrostatic) potential at core
  the test charge radii are     0.9892
  (the norm of the test charge is              1.0000)
       1 -83.4732       2 -83.4732

 E-fermi :   5.6299     XC(G=0):  -9.3250     alpha+bet :-11.7331

[...]

 spin component 2

[...]

 k-point    20 :      -0.2857    0.4286    0.1429
  band No.  band energies     occupation
      1      -2.5299      1.00000
      2      -1.4679      1.00000
      3       1.4771      1.00000
      4       2.5941      1.00000
      5       8.3599      0.00000
      6      10.4506      0.00000
      7      11.1968      0.00000
      8      11.3534      0.00000
      9      14.5918      0.00000
     10      15.7553      0.00000
     11      18.6585      0.00000
     12      19.9401      0.00000

[...]

 soft charge-density along one line, spin component           2
         0         1         2         3         4         5         6         7         8         9
 total charge-density along one line

------------------------ aborting loop because EDIFF is reached ----------------------------------------

[...]

  FORCE on cell =-STRESS in cart. coord.  units (eV):
  Direction    XX          YY          ZZ          XY          YZ          ZX
  Alpha Z     3.29357     3.29357     3.29357
  Ewald     -75.65130   -75.65130   -75.65130     0.00000     0.00000     0.00000
  Hartree     5.06478     5.06478     5.06478     0.00000     0.00000     0.00000
  E(xc)     -25.25206   -25.25206   -25.25206     0.00000     0.00000     0.00000
  Local     -29.51856   -29.51856   -29.51856     0.00001     0.00001     0.00001
  n-local    73.94231    79.63460    78.64058    -1.15028     2.25224     0.63356
  augment   -11.63357   -11.63357   -11.63357    -0.00001    -0.00001    -0.00001
  Kinetic    54.46452    56.12130    58.25653    -0.83594     3.52950     0.97144
  Fock        0.00000     0.00000     0.00000     0.00000     0.00000     0.00000
  Total      -0.01053    -0.01053    -0.01053     0.00000    -0.00000    -0.00000
  in kB      -0.41273    -0.41273    -0.41273     0.00000    -0.00000    -0.00000

 VOLUME and BASIS-vectors are now :
  energy-cutoff  :      520.00
  volume of cell :       40.88
      direct lattice vectors                 reciprocal lattice vectors
    -2.734256871 -2.734256871 -0.000000000    -0.182865043 -0.182865043  0.182865043
    -2.734256871 -0.000000000 -2.734256871    -0.182865043  0.182865043 -0.182865043
     0.000000000 -2.734256871 -2.734256871     0.182865043 -0.182865043 -0.182865043

  length of vectors
     3.866823150  3.866823150  3.866823150     0.316731545  0.316731545  0.316731545

 FORCES acting on ions
    electron-ion (+dipol)            ewald-force                    non-local-force                 convergence-correction
   0.577E-08 0.944E-08 0.944E-08   -.397E-14 -.655E-14 -.312E-14   -.833E-16 -.971E-16 -.104E-15   0.110E-08 0.110E-08 0.110E-08
   -.577E-08 -.944E-08 -.944E-08   0.386E-14 0.661E-14 0.294E-14   0.694E-16 0.104E-15 0.902E-16   -.110E-08 -.110E-08 -.110E-08
   0.114E-12 -.975E-14 0.163E-12   -.113E-15 0.572E-16 -.180E-15   -.139E-16 0.694E-17 -.139E-16   0.815E-14 0.878E-15 -.707E-15

 POSITION                                       TOTAL-FORCE (eV/Angst)
      0.00000      0.00000      0.00000        -0.000000     -0.000000     -0.000000
     -4.10139     -4.10139     -4.10139         0.000000      0.000000      0.000000
    total drift:                                0.000000     -0.000000      0.000000

  FREE ENERGIE OF THE ION-ELECTRON SYSTEM (eV)
  free  energy   TOTEN  =       -10.84120917 eV

  energy  without entropy=      -10.84120917  energy(sigma->0) =      -10.84120917

 d Force = 0.0000000E+00[ 0.000E+00, 0.000E+00]  d Energy = 0.1356700E-01-0.136E-01
 d Force = 0.0000000E+00[ 0.000E+00, 0.000E+00]  d Ewald  = 0.2639193E+01-0.264E+01

 stress matrix after NEB project (eV)
     -0.01053     -0.00000     -0.00000
      0.00000     -0.01053     -0.00000
     -0.00000     -0.00000     -0.01053
  FORCES: max atom, RMS     0.000000    0.000000
  FORCE total and by dimension    0.000000    0.000000
  Stress total and by dimension    0.018242    0.010532

 reached required accuracy - stopping structural energy minimisation

 total charge

[...]

 magnetization (x)

# of ion     s       p       d       tot
  1       -0.000  -0.000   0.000  -0.000
  2       -0.000  -0.000   0.000  -0.000
tot       -0.000  -0.000   0.000  -0.000

 BZINTS: Fermi energy:  5.629894;  8.000000 electrons
         Band energy:   4.967475;  BLOECHL correction:  0.000000