 vasp.5.3.5 31Mar14 (build Jun 21 2016 10:20:01) complex

 executed on             LinuxIFC date 2018.11.01  16:05:12

 INCAR:
 POTCAR:    PAW_PBE Si 05Jan2001
 POTCAR:    PAW_PBE Si 05Jan2001
   VRHFIN =Si: s2p2

   TITEL  = PAW_PBE Si 05Jan2001
   POMASS =   28.085; ZVAL   =    4.000    mass and valenz
   ENMAX  =  245.345; ENMIN  =  184.009 eV

 Optimization of the real space projectors (new method)

 maximal supplied QI-value         = 19.84
 optimisation between [QCUT,QGAM] = [ 11.51, 23.22] = [ 37.09,150.92] Ry
 Optimized for a Real-space Cutoff    1.21 Angstroem

   l    n(q)    QCUT    max X(q) W(low)/X(q) W(high)/X(q)  e(spline)
   0      8    11.508   159.560    0.71E-04    0.15E-03    0.51E-07
   0      8    11.508   115.863    0.70E-04    0.15E-03    0.51E-07
   1      8    11.508    88.339    0.16E-03    0.38E-04    0.82E-07
   1      8    11.508    48.592    0.15E-03    0.36E-04    0.79E-07
  PAW_PBE Si 05Jan2001                  :

 POSCAR: Si2
  positions in direct lattice
 exchange correlation table for  LEXCH =        8
   RHO(1)=    0.500       N(1)  =     2000
   RHO(2)=  100.500       N(2)  =     4000

 VTST: version 3.1, (03/28/14)

 CHAIN: initializing optimizer

 OPT: Using VASP Dynamics algorithm
 CHAIN: Read ICHAIN            0

 POSCAR: Si2
  positions in direct lattice

 ion  position               nearest neighbor table
   1  0.000  0.000  0.000-   2 2.37   2 2.37   2 2.37   2 2.37
   2  0.250  0.250  0.250-   1 2.37   1 2.37   1 2.37   1 2.37

  LATTYP: Found a face centered cubic cell.
 ALAT       =     5.4685140000

  Lattice vectors:

 A1 = (   0.0000000000,   2.7342570000,   2.7342570000)
 A2 = (   2.7342570000,   0.0000000000,   2.7342570000)
 A3 = (   2.7342570000,   2.7342570000,   0.0000000000)

Analysis of symmetry for initial positions (statically):
 Subroutine PRICEL returns:
 Original cell was already a primitive cell.

 Routine SETGRP: Setting up the symmetry group for a
 face centered cubic supercell.

 Subroutine GETGRP returns: Found 48 space group operations
 (whereof 24 operations were pure point group operations)
 out of a pool of 48 trial point group operations.

The static configuration has the point symmetry T_d .
 The point group associated with its full space group is O_h .

Analysis of symmetry for dynamics (positions and initial velocities):
 Subroutine PRICEL returns:
 Original cell was already a primitive cell.

 Routine SETGRP: Setting up the symmetry group for a
 face centered cubic supercell.

 Subroutine GETGRP returns: Found 48 space group operations
 (whereof 24 operations were pure point group operations)
 out of a pool of 48 trial point group operations.

The dynamic configuration has the point symmetry T_d .
 The point group associated with its full space group is O_h .

Analysis of magnetic symmetry:
 Subroutine PRICEL returns:
 Original cell was already a primitive cell.

 Subroutine MAGSYM returns: Found 48 space group operations
 (whereof 24 operations were pure point group operations)
 out of a pool of 48 trial space group operations
 (whereof 24 operations were pure point group operations)
 and found also     1 'primitive' translations

The magnetic configuration has the point symmetry T_d .
 The point group associated with its full space group is O_h .

 KPOINTS: Automatic kpoint scheme

Automatic generation of k-mesh.
Space group operators:
 irot       det(A)        alpha          n_x          n_y          n_z        tau_x        tau_y        tau_z
    1     1.000000     0.000000     1.000000     0.000000     0.000000     0.000000     0.000000     0.000000
    2     1.000000   120.000000    -0.577350    -0.577350    -0.577350     0.000000     0.000000     0.000000
    3     1.000000   120.000000     0.577350     0.577350     0.577350     0.000000     0.000000     0.000000
    4    -1.000000    90.000000     0.000000     0.000000    -1.000000     0.000000     0.000000     0.000000
    5    -1.000000   180.000000     0.000000     0.707107     0.707107     0.000000     0.000000     0.000000
    6    -1.000000    90.000000     0.000000     1.000000     0.000000     0.000000     0.000000     0.000000
    7     1.000000   180.000000     0.000000     0.000000     1.000000     0.000000     0.000000     0.000000
    8     1.000000   120.000000    -0.577350     0.577350     0.577350     0.000000     0.000000     0.000000
    9     1.000000   120.000000    -0.577350     0.577350    -0.577350     0.000000     0.000000     0.000000
   10    -1.000000    90.000000     0.000000     0.000000     1.000000     0.000000     0.000000     0.000000
   11    -1.000000    90.000000    -1.000000     0.000000     0.000000     0.000000     0.000000     0.000000
   12    -1.000000   180.000000     0.707107     0.000000     0.707107     0.000000     0.000000     0.000000
   13     1.000000   120.000000     0.577350    -0.577350     0.577350     0.000000     0.000000     0.000000
   14     1.000000   120.000000    -0.577350    -0.577350     0.577350     0.000000     0.000000     0.000000
   15     1.000000   180.000000     1.000000     0.000000     0.000000     0.000000     0.000000     0.000000
   16    -1.000000    90.000000     0.000000    -1.000000     0.000000     0.000000     0.000000     0.000000
   17    -1.000000   180.000000     0.707107     0.707107     0.000000     0.000000     0.000000     0.000000
   18    -1.000000    90.000000     1.000000     0.000000     0.000000     0.000000     0.000000     0.000000
   19     1.000000   120.000000     0.577350    -0.577350    -0.577350     0.000000     0.000000     0.000000
   20     1.000000   180.000000     0.000000     1.000000     0.000000     0.000000     0.000000     0.000000
   21     1.000000   120.000000     0.577350     0.577350    -0.577350     0.000000     0.000000     0.000000
   22    -1.000000   180.000000     0.000000    -0.707107     0.707107     0.000000     0.000000     0.000000
   23    -1.000000   180.000000     0.707107    -0.707107     0.000000     0.000000     0.000000     0.000000
   24    -1.000000   180.000000     0.707107     0.000000    -0.707107     0.000000     0.000000     0.000000
   25    -1.000000     0.000000     1.000000     0.000000     0.000000     0.250000     0.250000     0.250000
   26    -1.000000   120.000000    -0.577350    -0.577350    -0.577350     0.250000     0.250000     0.250000
   27    -1.000000   120.000000     0.577350     0.577350     0.577350     0.250000     0.250000     0.250000
   28     1.000000    90.000000     0.000000     0.000000    -1.000000     0.250000     0.250000     0.250000
   29     1.000000   180.000000     0.000000     0.707107     0.707107     0.250000     0.250000     0.250000
   30     1.000000    90.000000     0.000000     1.000000     0.000000     0.250000     0.250000     0.250000
   31    -1.000000   180.000000     0.000000     0.000000     1.000000     0.250000     0.250000     0.250000
   32    -1.000000   120.000000    -0.577350     0.577350     0.577350     0.250000     0.250000     0.250000
   33    -1.000000   120.000000    -0.577350     0.577350    -0.577350     0.250000     0.250000     0.250000
   34     1.000000    90.000000     0.000000     0.000000     1.000000     0.250000     0.250000     0.250000
   35     1.000000    90.000000    -1.000000     0.000000     0.000000     0.250000     0.250000     0.250000
   36     1.000000   180.000000     0.707107     0.000000     0.707107     0.250000     0.250000     0.250000
   37    -1.000000   120.000000     0.577350    -0.577350     0.577350     0.250000     0.250000     0.250000
   38    -1.000000   120.000000    -0.577350    -0.577350     0.577350     0.250000     0.250000     0.250000
   39    -1.000000   180.000000     1.000000     0.000000     0.000000     0.250000     0.250000     0.250000
   40     1.000000    90.000000     0.000000    -1.000000     0.000000     0.250000     0.250000     0.250000
   41     1.000000   180.000000     0.707107     0.707107     0.000000     0.250000     0.250000     0.250000
   42     1.000000    90.000000     1.000000     0.000000     0.000000     0.250000     0.250000     0.250000
   43    -1.000000   120.000000     0.577350    -0.577350    -0.577350     0.250000     0.250000     0.250000
   44    -1.000000   180.000000     0.000000     1.000000     0.000000     0.250000     0.250000     0.250000
   45    -1.000000   120.000000     0.577350     0.577350    -0.577350     0.250000     0.250000     0.250000
   46     1.000000   180.000000     0.000000    -0.707107     0.707107     0.250000     0.250000     0.250000
   47     1.000000   180.000000     0.707107    -0.707107     0.000000     0.250000     0.250000     0.250000
   48     1.000000   180.000000     0.707107     0.000000    -0.707107     0.250000     0.250000     0.250000

 Subroutine IBZKPT returns following result:

 Found     29 irreducible k-points:

 Following reciprocal coordinates:
            Coordinates               Weight
  0.000000  0.000000  0.000000      1.000000
  0.125000  0.000000  0.000000      8.000000
  0.250000  0.000000  0.000000      8.000000
  0.375000  0.000000  0.000000      8.000000
  0.500000  0.000000  0.000000      4.000000
  0.125000  0.125000  0.000000      6.000000
  0.250000  0.125000  0.000000     24.000000
  0.375000  0.125000  0.000000     24.000000
  0.500000  0.125000  0.000000     24.000000
 -0.375000  0.125000  0.000000     24.000000
 -0.250000  0.125000  0.000000     24.000000
 -0.125000  0.125000  0.000000     12.000000
  0.250000  0.250000  0.000000      6.000000
  0.375000  0.250000  0.000000     24.000000
  0.500000  0.250000  0.000000     24.000000
 -0.375000  0.250000  0.000000     24.000000
 -0.250000  0.250000  0.000000     12.000000
  0.375000  0.375000  0.000000      6.000000
  0.500000  0.375000  0.000000     24.000000
 -0.375000  0.375000  0.000000     12.000000
  0.500000  0.500000  0.000000      3.000000
  0.375000  0.250000  0.125000     24.000000
  0.500000  0.250000  0.125000     48.000000
 -0.375000  0.250000  0.125000     24.000000
  0.500000  0.375000  0.125000     24.000000
 -0.375000  0.375000  0.125000     48.000000
 -0.250000  0.375000  0.125000     24.000000
 -0.375000  0.500000  0.125000     12.000000
 -0.250000  0.500000  0.250000      6.000000

 Following cartesian coordinates:
            Coordinates               Weight
  0.000000  0.000000  0.000000      1.000000
 -0.022858  0.022858  0.022858      8.000000
 -0.045716  0.045716  0.045716      8.000000
 -0.068574  0.068574  0.068574      8.000000
 -0.091433  0.091433  0.091433      4.000000
  0.000000  0.000000  0.045716      6.000000
 -0.022858  0.022858  0.068574     24.000000
 -0.045716  0.045716  0.091433     24.000000
 -0.068574  0.068574  0.114291     24.000000
  0.091433 -0.091433 -0.045716     24.000000
  0.068574 -0.068574 -0.022858     24.000000
  0.045716 -0.045716  0.000000     12.000000
  0.000000  0.000000  0.091433      6.000000
 -0.022858  0.022858  0.114291     24.000000
 -0.045716  0.045716  0.137149     24.000000
  0.114291 -0.114291 -0.022858     24.000000
  0.091433 -0.091433  0.000000     12.000000
  0.000000  0.000000  0.137149      6.000000
 -0.022858  0.022858  0.160007     24.000000
[...]
   IDIPOL =      0    1-x, 2-y, 3-z, 4-all directions
   EPSILON=  1.0000000 bulk dielectric constant

 Exchange correlation treatment:
   GGA     =    --    GGA type
   VOSKOWN=      0    Vosko Wilk Nusair interpolation
   LHFCALC =     F    Hartree Fock is set to
   LHFONE  =     F    Hartree Fock one center treatment
   AEXX    =    0.0000 exact exchange contribution

 Linear response parameters
   LEPSILON=     F    determine dielectric tensor
   LRPA    =     F    only Hartree local field effects (RPA)
   LNABLA  =     F    use nabla operator in PAW spheres
   LVEL    =     F    velocity operator in full k-point grid
   LINTERFAST=   F  fast interpolation
   KINTER  =     0    interpolate to denser k-point grid
   CSHIFT  =0.1000    complex shift for real part using Kramers Kronig
   OMEGAMAX=  -1.0    maximum frequency
   DEG_THRESHOLD= 0.2000000E-02 threshold for treating states as degnerate
   RTIME   =    0.100 relaxation time in fs

 Orbital magnetization related:
   ORBITALMAG=     F  switch on orbital magnetization
   LCHIMAG   =     F  perturbation theory with respect to B field
   DQ        =  0.001000  dq finite difference perturbation B field

 Static calculation
 charge density and potential will be updated during run
 spin polarized calculation
 Variant of blocked Davidson
 Davidson routine will perform the subspace rotation
 perform sub-space diagonalisation
    after iterative eigenvector-optimisation
 modified Broyden-mixing scheme, WC =      100.0
 initial mixing is a Kerker type mixing with AMIX =  0.4000 and BMIX =      1.0000
 Hartree-type preconditioning will be used
 using additional bands            8
 real space projection scheme for non local part
 use partial core corrections
 calculate Harris-corrections to forces
   (improved forces if not selfconsistent)
 use gradient corrections
 use of overlap-Matrix (Vanderbilt PP)
 Fermi weights with tetrahedron method with Bloechl corrections

  energy-cutoff  :      520.00
  volume of cell :       40.88
      direct lattice vectors                 reciprocal lattice vectors
     0.000000000  2.734257000  2.734257000    -0.182865034  0.182865034  0.182865034
     2.734257000  0.000000000  2.734257000     0.182865034 -0.182865034  0.182865034
     2.734257000  2.734257000  0.000000000     0.182865034  0.182865034 -0.182865034

  length of vectors
     3.866823332  3.866823332  3.866823332     0.316731530  0.316731530  0.316731530

 k-points in units of 2pi/SCALE and weight: Automatic kpoint scheme
   0.00000000  0.00000000  0.00000000       0.002
  -0.02285813  0.02285813  0.02285813       0.016
  -0.04571626  0.04571626  0.04571626       0.016
  -0.06857439  0.06857439  0.06857439       0.016
  -0.09143252  0.09143252  0.09143252       0.008
   0.00000000  0.00000000  0.04571626       0.012
  -0.02285813  0.02285813  0.06857439       0.047
  -0.04571626  0.04571626  0.09143252       0.047
  -0.06857439  0.06857439  0.11429065       0.047
   0.09143252 -0.09143252 -0.04571626       0.047
   0.06857439 -0.06857439 -0.02285813       0.047
   0.04571626 -0.04571626  0.00000000       0.023
   0.00000000  0.00000000  0.09143252       0.012
  -0.02285813  0.02285813  0.11429065       0.047
  -0.04571626  0.04571626  0.13714878       0.047
   0.11429065 -0.11429065 -0.02285813       0.047
   0.09143252 -0.09143252  0.00000000       0.023
   0.00000000  0.00000000  0.13714878       0.012
  -0.02285813  0.02285813  0.16000690       0.047
   0.13714878 -0.13714878  0.00000000       0.023
   0.00000000  0.00000000  0.18286503       0.006
   0.00000000  0.04571626  0.09143252       0.047
  -0.02285813  0.06857439  0.11429065       0.094
   0.13714878 -0.09143252 -0.04571626       0.047
   0.00000000  0.04571626  0.13714878       0.047
   0.16000690 -0.11429065 -0.02285813       0.094
   0.13714878 -0.09143252  0.00000000       0.047
   0.18286503 -0.13714878  0.00000000       0.023
   0.18286503 -0.09143252  0.00000000       0.012

 k-points in reciprocal lattice and weights: Automatic kpoint scheme
   0.00000000  0.00000000  0.00000000       0.002
   0.12500000  0.00000000  0.00000000       0.016
   0.25000000  0.00000000  0.00000000       0.016
   0.37500000  0.00000000  0.00000000       0.016
   0.50000000  0.00000000  0.00000000       0.008
   0.12500000  0.12500000  0.00000000       0.012
   0.25000000  0.12500000  0.00000000       0.047
   0.37500000  0.12500000  0.00000000       0.047
   0.50000000  0.12500000  0.00000000       0.047
  -0.37500000  0.12500000  0.00000000       0.047
  -0.25000000  0.12500000  0.00000000       0.047
  -0.12500000  0.12500000  0.00000000       0.023
   0.25000000  0.25000000  0.00000000       0.012
   0.37500000  0.25000000  0.00000000       0.047
   0.50000000  0.25000000  0.00000000       0.047
  -0.37500000  0.25000000  0.00000000       0.047
  -0.25000000  0.25000000  0.00000000       0.023
   0.37500000  0.37500000  0.00000000       0.012
   0.50000000  0.37500000  0.00000000       0.047
  -0.37500000  0.37500000  0.00000000       0.023
   0.50000000  0.50000000  0.00000000       0.006
   0.37500000  0.25000000  0.12500000       0.047
   0.50000000  0.25000000  0.12500000       0.094
  -0.37500000  0.25000000  0.12500000       0.047
   0.50000000  0.37500000  0.12500000       0.047
  -0.37500000  0.37500000  0.12500000       0.094
  -0.25000000  0.37500000  0.12500000       0.047
  -0.37500000  0.50000000  0.12500000       0.023
  -0.25000000  0.50000000  0.25000000       0.012

 position of ions in fractional coordinates (direct lattice)
   0.00000000  0.00000000  0.00000000
   0.25000000  0.25000000  0.25000000

 position of ions in cartesian coordinates  (Angst):
   0.00000000  0.00000000  0.00000000
   1.36712850  1.36712850  1.36712850

 k-point  1 :   0.0000 0.0000 0.0000  plane waves:    1067
 k-point  2 :   0.1250 0.0000 0.0000  plane waves:    1100
 k-point  3 :   0.2500 0.0000 0.0000  plane waves:    1095
 k-point  4 :   0.3750 0.0000 0.0000  plane waves:    1101
 k-point  5 :   0.5000 0.0000 0.0000  plane waves:    1104
 k-point  6 :   0.1250 0.1250 0.0000  plane waves:    1102
 k-point  7 :   0.2500 0.1250 0.0000  plane waves:    1101
 k-point  8 :   0.3750 0.1250 0.0000  plane waves:    1105
 k-point  9 :   0.5000 0.1250 0.0000  plane waves:    1101
 k-point 10 :  -0.3750 0.1250 0.0000  plane waves:    1107
 k-point 11 :  -0.2500 0.1250 0.0000  plane waves:    1102
 k-point 12 :  -0.1250 0.1250 0.0000  plane waves:    1107
 k-point 13 :   0.2500 0.2500 0.0000  plane waves:    1094
 k-point 14 :   0.3750 0.2500 0.0000  plane waves:    1091
 k-point 15 :   0.5000 0.2500 0.0000  plane waves:    1102
 k-point 16 :  -0.3750 0.2500 0.0000  plane waves:    1111
 k-point 17 :  -0.2500 0.2500 0.0000  plane waves:    1097
 k-point 18 :   0.3750 0.3750 0.0000  plane waves:    1094
 k-point 19 :   0.5000 0.3750 0.0000  plane waves:    1106
 k-point 20 :  -0.3750 0.3750 0.0000  plane waves:    1121
 k-point 21 :   0.5000 0.5000 0.0000  plane waves:    1106
 k-point 22 :   0.3750 0.2500 0.1250  plane waves:    1096
 k-point 23 :   0.5000 0.2500 0.1250  plane waves:    1104
 k-point 24 :  -0.3750 0.2500 0.1250  plane waves:    1108
 k-point 25 :   0.5000 0.3750 0.1250  plane waves:    1084
 k-point 26 :  -0.3750 0.3750 0.1250  plane waves:    1099
 k-point 27 :  -0.2500 0.3750 0.1250  plane waves:    1102
 k-point 28 :  -0.3750 0.5000 0.1250  plane waves:    1106
 k-point 29 :  -0.2500 0.5000 0.2500  plane waves:    1124

 maximum and minimum number of plane-waves per node :      1124     1067

 maximum number of plane-waves:      1124
 maximum index in each direction:
   IXMAX=    7   IYMAX=    7   IZMAX=    7
   IXMIN=   -7   IYMIN=   -7   IZMIN=   -7

 NGX is ok and might be reduce to  30
 NGY is ok and might be reduce to  30
 NGZ is ok and might be reduce to  30

 serial   3D FFT for wavefunctions
 parallel 3D FFT for charge:
    minimum data exchange during FFTs selected (reduces bandwidth)

 Broyden mixing: mesh for mixing (old mesh)
   NGX = 15   NGY = 15   NGZ = 15
  (NGX  = 60   NGY  = 60   NGZ  = 60)
  gives a total of   3375 points

 charge density for first step will be calculated from the start-wavefunctions

 Maximum index for non-local projection operator         4753
 Maximum index for augmentation-charges         5379 (set IRDMAX)

 initial charge from wavefunction
 First call to EWALD:  gamma=   0.515
 Maximum number of real-space cells 3x 3x 3
 Maximum number of reciprocal cells 3x 3x 3

 FEWALD executed in parallel

----------------------------------------- Iteration    1(   1)  ---------------------------------------

 BZINTS: Fermi energy:  7.992743;  8.000000 electrons
         Band energy:   7.224942;  BLOECHL correction: -0.037980

 eigenvalue-minimisations  :  1392
 total energy-change (2. order) :-0.1774580E-01  (-0.3223326E+03)
 number of electron       8.0000002 magnetization      -0.0000000
 augmentation part       -1.1465108 magnetization       0.0114162

 Free energy of the ion-electron system (eV)
  alpha Z        PSCENC =         3.29356700
  Ewald energy   TEWEN  =      -226.95378312
  -Hartree energ DENC   =        -7.25776909
  -exchange      EXHF   =         0.00000000
  -V(xc)+E(xc)   XCENC  =       -19.17103329
  PAW double counting   =  15097325.13422876-15097288.42060108
  entropy T*S    EENTRO =         0.00000000
  eigenvalues    EBANDS =         7.22494229
  atomic energy  EATOM  =       206.13270273
  free energy    TOTEN  =        -0.01774580 eV

  energy without entropy =       -0.01774580  energy(sigma->0) =       -0.01774580

[...]

 Broyden mixing:
  rms(total) = 0.21642E+03    rms(broyden)= 0.21642E+03
  rms(prec ) = 0.21646E+03
  weight for this iteration     100.00

[...]

 eigenvalue-minimisations  :  1620
 total energy-change (2. order) : 0.5785019E+01  (-0.1375834E+00)
 number of electron       8.0000001 magnetization      -0.0000000
 augmentation part       -0.4738745 magnetization       0.0000221

[...]

 eigenvalues of (default mixing * dielectric matrix)
  average eigenvalue GAMMA=   2.4984
  2.4984

[...]

 eigenvalue-minimisations  :  1628
 total energy-change (2. order) : 0.2686004E+01  (-0.3627793E+00)
 number of electron       8.0000001 magnetization      -0.0000000
 augmentation part       -0.4516297 magnetization       0.0002449

[...]

 Broyden mixing:
  rms(total) = 0.48680E-02    rms(broyden)= 0.48680E-02
  rms(prec ) = 0.49686E-02
  weight for this iteration     100.00

 eigenvalues of (default mixing * dielectric matrix)
  average eigenvalue GAMMA=   1.5299
  3.0137  2.5017  1.9227  1.2187  0.7726  0.6243  0.6557

[...]

----------------------------------------- Iteration    1(  13)  ---------------------------------------

[...]

 eigenvalue-minimisations  :  1152
 total energy-change (2. order) :-0.5818042E-05  (-0.1584721E-05)
 number of electron       8.0000001 magnetization      -0.0000000
 augmentation part       -0.4580828 magnetization      -0.0000096

 Free energy of the ion-electron system (eV)
  alpha Z        PSCENC =         3.29356700
  Ewald energy   TEWEN  =      -226.95378312
  -Hartree energ DENC   =       -15.18185071
  -exchange      EXHF   =         0.00000000
  -V(xc)+E(xc)   XCENC  =       -18.05822805
  PAW double counting   =       829.98914203     -795.00881033
  entropy T*S    EENTRO =         0.00000000
  eigenvalues    EBANDS =         4.94043169
  atomic energy  EATOM  =       206.13270273
  free energy    TOTEN  =       -10.84682876 eV

  energy without entropy =      -10.84682876  energy(sigma->0) =      -10.84682876

 average (electrostatic) potential at core
  the test charge radii are     0.9892
  (the norm of the test charge is              1.0000)
       1 -83.4794       2 -83.4794

 E-fermi :   5.6378     XC(G=0):  -9.3272     alpha+bet :-11.7331

 spin component 1

 k-point     1 :       0.0000    0.0000    0.0000
  band No.  band energies     occupation
      1      -6.1974      1.00000
      2       5.6187      1.00000
      3       5.6187      1.00000
      4       5.6187      1.00000
      5       8.1751      0.00000
      6       8.1751      0.00000
      7       8.1751      0.00000
      8       8.7538      0.00000
      9      13.3272      0.00000
     10      13.3272      0.00000
     11      13.4952      0.00000
     12      16.8011      0.00000

[...]

 spin component 2

[...]

 k-point    29 :      -0.2500    0.5000    0.2500
  band No.  band energies     occupation
      1      -1.9736      1.00000
      2      -1.9736      1.00000
      3       1.8567      1.00000
      4       1.8567      1.00000
      5       9.8884      0.00000
      6       9.8884      0.00000
      7      10.5506      0.00000
      8      10.5506      0.00000
      9      16.0710      0.00000
     10      16.0710      0.00000
     11      18.4903      0.00000
     12      18.4903      0.00000

 soft charge-density along one line, spin component           1
         0         1         2         3         4         5         6         7         8         9
 total charge-density along one line

 soft charge-density along one line, spin component           2
         0         1         2         3         4         5         6         7         8         9
 total charge-density along one line

------------------------ aborting loop because EDIFF is reached ----------------------------------------

 total charge

# of ion     s       p       d       tot
  1        0.750   0.929   0.000   1.679
  2        0.750   0.929   0.000   1.679
tot        1.501   1.857   0.000   3.358

 magnetization (x)

[...]

  FORCE on cell =-STRESS in cart. coord.  units (eV):
  Direction    XX          YY          ZZ          XY          YZ          ZX
  Alpha Z     3.29357     3.29357     3.29357
  Ewald     -75.65130   -75.65130   -75.65130    -0.00000    -0.00000     0.00000
  Hartree     5.06082     5.06082     5.06082     0.00000     0.00000     0.00000
  E(xc)     -25.24813   -25.24813   -25.24813     0.00000     0.00000     0.00000
  Local     -29.51274   -29.51274   -29.51274     0.00000     0.00000     0.00000
  n-local    78.57408    79.72139    74.03455     2.22293    -1.18816     0.59643
  augment   -11.64255   -11.64255   -11.64255    -0.00000    -0.00000    -0.00000
  Kinetic    58.30760    55.99057    54.49942     3.52678    -0.76947     0.99447
  Fock        0.00000     0.00000     0.00000     0.00000     0.00000     0.00000
  Total       0.00887     0.00887     0.00887    -0.00000     0.00000    -0.00000
  in kB       0.34758     0.34758     0.34758    -0.00000     0.00000    -0.00000

 VOLUME and BASIS-vectors are now :
  energy-cutoff  :      520.00
  volume of cell :       40.88
      direct lattice vectors                 reciprocal lattice vectors
     0.000000000  2.734257000  2.734257000    -0.182865034  0.182865034  0.182865034
     2.734257000  0.000000000  2.734257000     0.182865034 -0.182865034  0.182865034
     2.734257000  2.734257000  0.000000000     0.182865034  0.182865034 -0.182865034

  length of vectors
     3.866823332  3.866823332  3.866823332     0.316731530  0.316731530  0.316731530

 FORCES acting on ions
    electron-ion (+dipol)            ewald-force                    non-local-force                 convergence-correction
   0.565E-08 0.565E-08 0.810E-08   0.826E-14 0.610E-14 0.639E-14   0.139E-16 0.416E-16 0.173E-16   -.625E-09 -.625E-09 -.625E-09
   -.565E-08 -.565E-08 -.810E-08   -.849E-14 -.641E-14 -.653E-14   -.278E-16 -.208E-16 -.173E-16   0.625E-09 0.625E-09 0.625E-09
   -.321E-13 -.541E-13 -.140E-13   -.230E-15 -.314E-15 -.142E-15   -.139E-16 0.208E-16 0.000E+00   -.259E-14 -.447E-14 -.338E-14

 POSITION                                       TOTAL-FORCE (eV/Angst)
      0.00000      0.00000      0.00000         0.000000      0.000000      0.000000
      1.36713      1.36713      1.36713        -0.000000     -0.000000     -0.000000
    total drift:                               -0.000000     -0.000000     -0.000000

  FREE ENERGIE OF THE ION-ELECTRON SYSTEM (eV)
  free  energy   TOTEN  =       -10.84682876 eV

  energy  without entropy=      -10.84682876  energy(sigma->0) =      -10.84682876

 stress matrix after NEB project (eV)
      0.00887      0.00000     -0.00000
     -0.00000      0.00887      0.00000
      0.00000      0.00000      0.00887
  FORCES: max atom, RMS     0.000000    0.000000
  FORCE total and by dimension    0.000000    0.000000
  Stress total and by dimension    0.015362    0.008869

 total charge

[...]

 magnetization (x)

# of ion     s       p       d       tot
  1       -0.000   0.000   0.000  -0.000
  2       -0.000   0.000   0.000  -0.000
tot       -0.000   0.000   0.000  -0.000

 BZINTS: Fermi energy:  5.637811;  8.000000 electrons
         Band energy:   4.940432;  BLOECHL correction:  0.000000